outputs/case_378.model.txt
semiannual_report_submission_days = 7
own_capital = 1500000
under_supervision = False
minimum_capital_ratio = 150
net_worth_ratio = 150
risk_capital = 1000000
annual_report_submitted = True
net_worth = 1000000
semiannual_report_submitted = True
minimum_net_worth_ratio = 100
annual_report_submission_days = 7
capital_ratio_minimum = 1
capital_level = 1
capital_reporting_compliance = True
net_worth_ratio_minimum = 1
penalty = False
/0 = [else -> 3/2]